
--- Job Example_1.gms Start 08/10/23 13:02:14 44.1.0 ab065035 WEX-WEI x86 64bit/MS Windows
--- Applying:
    C:\GAMS\44\gmsprmNT.txt
--- GAMS Parameters defined
    Input "C:\Users\kunya\OneDrive\Documents\Programming projects\1_LP\Example_1.gms"
    PageSize 0
    ScrDir "C:\Users\kunya\OneDrive\Documents\Programming projects\1_LP\225a\"
    SysDir C:\GAMS\44\
    LogOption 3
    ErrMsg 1
    ErrorLog 99
    IDE 1
    LstTitleLeftAligned 1
Licensee: GAMS Demo, for EULA and demo limitations see   G230706/0001CB-GEN
          https://www.gams.com/latest/docs/UG%5FLicense.html         DC0000
          C:\GAMS\44\gamslice.txt
          Demo license for demonstration and instructional purposes only
Processor information: 1 socket(s), 4 core(s), and 8 thread(s) available
GAMS 44.1.0   Copyright (C) 1987-2023 GAMS Development. All rights reserved
--- Starting compilation
--- Example_1.gms(29) 2 Mb
--- Starting execution: elapsed 0:00:00.011
--- Example_1.gms(25) 3 Mb
--- Generating LP model example_1
--- Example_1.gms(28) 3 Mb
---   3 rows  3 columns  7 non-zeroes
--- Range statistics (absolute non-zero finite values)
--- RHS       [min, max] : [ 2.400E+01, 2.800E+01] - Zero values observed as well
--- Bound     [min, max] : [        NA,        NA]
--- Matrix    [min, max] : [ 1.000E+00, 1.000E+02]
--- Executing CPLEX (Solvelink=2): elapsed 0:00:00.044

IBM ILOG CPLEX   44.1.0 ab065035 Jul 20, 2023          WEI x86 64bit/MS Window

--- *** This solver runs with a demo license. No commercial use.
--- GMO setup time: 0.00s
--- GMO memory 0.50 Mb (peak 0.50 Mb)
--- Dictionary memory 0.00 Mb
--- Cplex 22.1.1.0 link memory 0.00 Mb (peak 0.00 Mb)
--- Starting Cplex

Version identifier: 22.1.1.0 | 2022-11-27 | 9160aff4d
CPXPARAM_Advance                                 0
CPXPARAM_Simplex_Display                         2
CPXPARAM_Threads                                 1
CPXPARAM_MIP_Display                             4
CPXPARAM_MIP_Pool_Capacity                       0
CPXPARAM_MIP_Tolerances_AbsMIPGap                0
Tried aggregator 1 time.
LP Presolve eliminated 0 rows and 1 columns.
Aggregator did 2 substitutions.
All rows and columns eliminated.
Presolve time = 0.01 sec. (0.00 ticks)

--- LP status (1): optimal.
--- Cplex Time: 0.03sec (det. 0.00 ticks)


Optimal solution found
Objective:          320.000000

--- Reading solution for model example_1
*** Status: Normal completion
--- Job Example_1.gms Stop 08/10/23 13:02:15 elapsed 0:00:00.409
